proyfinal/src/viki/013/experimentInOfficeAgust.take6.output/b2c52d3d-be99-4dca-929d-a06625e03526.als.out
Reading from standard input... Use '--help' for help.
============================[ Problem Statistics ]=============================
|                                                                             |
|  Number of variables:         87638                                         |
|  Number of clauses:          161767                                         |
|  Parse time:                   0.03 s                                       |
|                                                                             |
============================[ Search Statistics ]==============================
| Conflicts |          ORIGINAL         |          LEARNT          | Progress |
|           |    Vars  Clauses Literals |    Limit  Clauses Lit/Cl |          |
===============================================================================
|       100 |   65097   115081   287413 |    42196      100     72 | 25.721 % |
|       250 |   65097   115081   287413 |    46416      250     55 | 25.721 % |
|       475 |   65097   115081   287413 |    51057      475     75 | 25.721 % |
|       812 |   65096   115037   287323 |    56163      810     66 | 25.722 % |
|      1318 |   65074   114945   287112 |    61779     1315     75 | 25.747 % |
|      2077 |   54810    84240   211485 |    67957     1970     73 | 37.459 % |
|      3216 |   54742    83948   210816 |    74753     3104     63 | 37.536 % |
|      4924 |   54286    82556   207551 |    82228     4793     67 | 38.057 % |
|      7486 |   54019    81467   204866 |    90451     7330     64 | 38.361 % |
|     11330 |   53616    79707   200645 |    99496     9076     67 | 38.821 % |
|     17096 |   53123    78052   196543 |   109446    14688     67 | 39.384 % |
===============================================================================
restarts              : 65
conflicts             : 19384          (6701 /sec)
decisions             : 68576          (0.00 % random) (23707 /sec)
propagations          : 32092490       (11094602 /sec)
conflict literals     : 1263866        (47.91 % deleted)
Memory used           : 31.54 MB
CPU time              : 2.89262 s

INDETERMINATE
